RC201n														
															
CUSTOMER-EVENT				
CUST NO.	DEMAND		ACTION TIME
				
1		21		500
2		28		131
3		14		172
4		44		373
5		20		37
6		21		140
7		21		243
8		12		272
9		23		103
10		34		182
11		44		121
12		20		1
13		11		242
14		7		17
15		19		42
16		18		76
